(set-info :source |printed by MathSAT|)
(declare-fun |!{$(in_main#0)<$(in_elem_exists#5)<size>>}| () Int)
(declare-fun |!{$(in_main#0)<$(in_elem_exists#5)<size>>}.next| () Int)
(declare-fun |!{$(in_main#0)<n>}| () Int)
(declare-fun |!{$(in_main#0)<n>}.next| () Int)
(declare-fun |!{$(in_main#0)<$(in_elem_exists#5)<value>>}| () Int)
(declare-fun |!{$(in_main#0)<$(in_elem_exists#5)<value>>}.next| () Int)
(declare-fun |!{$(in_main#0)<&set>}| () Int)
(declare-fun |!{$(in_main#0)<&set>}.next| () Int)
(declare-fun |!{$(in_main#0)<$(in_elem_exists#5)<i>>}| () Int)
(declare-fun |!{$(in_main#0)<$(in_elem_exists#5)<i>>}.next| () Int)
(declare-fun |!{$(in_main#0)<v>}| () Int)
(declare-fun |!{$(in_main#0)<v>}.next| () Int)
(declare-fun |!{$(in_main#0)<x>}| () Int)
(declare-fun |!{$(in_main#0)<x>}.next| () Int)
(declare-fun |!{$(in_main#0)<y>}| () Int)
(declare-fun |!{$(in_main#0)<y>}.next| () Int)
(declare-fun |!{$(in_main#0)<values.1>}| () (Array Int Int))
(declare-fun |!{$(in_main#0)<values.1>}.next| () (Array Int Int))
(declare-fun |!{%memaddr}| () Int)
(declare-fun |!{%memaddr}.next| () Int)
(declare-fun |!{%mem.0}| () (Array Int Int))
(declare-fun |!{%mem.0}.next| () (Array Int Int))
(declare-fun |!{$(in_main#0)<$(in_elem_exists#5)<set>>}| () Int)
(declare-fun |!{$(in_main#0)<$(in_elem_exists#5)<set>>}.next| () Int)
(declare-fun |!{$(in_main#0)<SIZE>}| () Int)
(declare-fun |!{$(in_main#0)<SIZE>}.next| () Int)
(declare-fun |!{$(in_main#0)<$(in___VERIFIER_nondet_int#1)<h#<__VERIFIER_nondet_int.return>>>}| () Int)
(declare-fun |!{$(in_main#0)<$(in___VERIFIER_nondet_int#2)<h#<__VERIFIER_nondet_int.return>>>}| () Int)
(declare-fun |!{$(in_main#0)<$(in___VERIFIER_nondet_int#4)<h#<__VERIFIER_nondet_int.return>>>}| () Int)
(declare-fun !pc () Int)
(declare-fun !pc.next () Int)
(declare-fun |%{$(in_main#0)<v>}#1| () Int)
(declare-fun |%{$(in_main#0)<y>}#1| () Int)
(declare-fun |%{$(in_main#0)<values.1>}#1| () (Array Int Int))
(declare-fun |%{$(in_main#0)<$(in_elem_exists#5)<elem_exists.return>>}#2| () Int)
(declare-fun |%{$(in_main#0)<n>}#2| () Int)
(declare-fun |%{%mem.0}#2| () (Array Int Int))
(declare-fun |%{$(in_main#0)<$temp.1>}#3| () Int)
(define-fun .def_75 () Int (! !pc :next !pc.next))
(define-fun .def_78 () Bool (! (= .def_75 2) :init true))
(define-fun .def_461 () Bool (= .def_75 50))
(define-fun .def_445 () Bool (= !pc.next 71))
(define-fun .def_464 () Bool (and .def_445 .def_461))
(define-fun .def_20 () Int (! |!{$(in_main#0)<x>}| :next |!{$(in_main#0)<x>}.next|))
(define-fun .def_32 () Int (! |!{$(in_main#0)<SIZE>}| :next |!{$(in_main#0)<SIZE>}.next|))
(define-fun .def_452 () Bool (<= .def_32 .def_20))
(define-fun .def_18 () Int (! |!{$(in_main#0)<v>}| :next |!{$(in_main#0)<v>}.next|))
(define-fun .def_129 () Bool (= .def_18 |!{$(in_main#0)<v>}.next|))
(define-fun .def_14 () Int (! |!{$(in_main#0)<&set>}| :next |!{$(in_main#0)<&set>}.next|))
(define-fun .def_126 () Bool (= .def_14 |!{$(in_main#0)<&set>}.next|))
(define-fun .def_10 () Int (! |!{$(in_main#0)<n>}| :next |!{$(in_main#0)<n>}.next|))
(define-fun .def_124 () Bool (= .def_10 |!{$(in_main#0)<n>}.next|))
(define-fun .def_8 () Int (! |!{$(in_main#0)<$(in_elem_exists#5)<size>>}| :next |!{$(in_main#0)<$(in_elem_exists#5)<size>>}.next|))
(define-fun .def_93 () Bool (= .def_8 |!{$(in_main#0)<$(in_elem_exists#5)<size>>}.next|))
(define-fun .def_125 () Bool (and .def_93 .def_124))
(define-fun .def_127 () Bool (and .def_125 .def_126))
(define-fun .def_12 () Int (! |!{$(in_main#0)<$(in_elem_exists#5)<value>>}| :next |!{$(in_main#0)<$(in_elem_exists#5)<value>>}.next|))
(define-fun .def_97 () Bool (= .def_12 |!{$(in_main#0)<$(in_elem_exists#5)<value>>}.next|))
(define-fun .def_128 () Bool (and .def_97 .def_127))
(define-fun .def_130 () Bool (and .def_128 .def_129))
(define-fun .def_16 () Int (! |!{$(in_main#0)<$(in_elem_exists#5)<i>>}| :next |!{$(in_main#0)<$(in_elem_exists#5)<i>>}.next|))
(define-fun .def_101 () Bool (= .def_16 |!{$(in_main#0)<$(in_elem_exists#5)<i>>}.next|))
(define-fun .def_131 () Bool (and .def_101 .def_130))
(define-fun .def_103 () Bool (= |!{$(in_main#0)<x>}.next| 0))
(define-fun .def_258 () Bool (and .def_103 .def_131))
(define-fun .def_22 () Int (! |!{$(in_main#0)<y>}| :next |!{$(in_main#0)<y>}.next|))
(define-fun .def_155 () Bool (= .def_22 |!{$(in_main#0)<y>}.next|))
(define-fun .def_259 () Bool (and .def_155 .def_258))
(define-fun .def_24 () (Array Int Int) (! |!{$(in_main#0)<values.1>}| :next |!{$(in_main#0)<values.1>}.next|))
(define-fun .def_139 () Bool (= .def_24 |!{$(in_main#0)<values.1>}.next|))
(define-fun .def_260 () Bool (and .def_139 .def_259))
(define-fun .def_26 () Int (! |!{%memaddr}| :next |!{%memaddr}.next|))
(define-fun .def_141 () Bool (= .def_26 |!{%memaddr}.next|))
(define-fun .def_261 () Bool (and .def_141 .def_260))
(define-fun .def_28 () (Array Int Int) (! |!{%mem.0}| :next |!{%mem.0}.next|))
(define-fun .def_111 () Bool (= .def_28 |!{%mem.0}.next|))
(define-fun .def_262 () Bool (and .def_111 .def_261))
(define-fun .def_144 () Bool (= .def_32 |!{$(in_main#0)<SIZE>}.next|))
(define-fun .def_263 () Bool (and .def_144 .def_262))
(define-fun .def_30 () Int (! |!{$(in_main#0)<$(in_elem_exists#5)<set>>}| :next |!{$(in_main#0)<$(in_elem_exists#5)<set>>}.next|))
(define-fun .def_115 () Bool (= .def_30 |!{$(in_main#0)<$(in_elem_exists#5)<set>>}.next|))
(define-fun .def_264 () Bool (and .def_115 .def_263))
(define-fun .def_460 () Bool (and .def_264 .def_452))
(define-fun .def_465 () Bool (and .def_460 .def_464))
(define-fun .def_118 () Bool (= !pc.next 50))
(define-fun .def_462 () Bool (and .def_118 .def_461))
(define-fun .def_175 () Int (+ .def_14 .def_20))
(define-fun .def_454 () (Array Int Int) (store .def_28 .def_175 |!{$(in_main#0)<$(in___VERIFIER_nondet_int#2)<h#<__VERIFIER_nondet_int.return>>>}|))
(define-fun .def_455 () Bool (= |!{%mem.0}.next| .def_454))
(define-fun .def_211 () Int (* (- 1) |!{$(in_main#0)<x>}.next|))
(define-fun .def_212 () Int (+ .def_20 .def_211))
(define-fun .def_213 () Bool (= .def_212 (- 1)))
(define-fun .def_214 () Bool (and .def_131 .def_213))
(define-fun .def_215 () Bool (and .def_155 .def_214))
(define-fun .def_216 () Bool (and .def_139 .def_215))
(define-fun .def_217 () Bool (and .def_141 .def_216))
(define-fun .def_456 () Bool (and .def_217 .def_455))
(define-fun .def_457 () Bool (and .def_144 .def_456))
(define-fun .def_458 () Bool (and .def_115 .def_457))
(define-fun .def_453 () Bool (not .def_452))
(define-fun .def_459 () Bool (and .def_453 .def_458))
(define-fun .def_463 () Bool (and .def_459 .def_462))
(define-fun .def_466 () Bool (or .def_463 .def_465))
(define-fun .def_437 () Bool (= .def_75 80))
(define-fun .def_446 () Bool (and .def_437 .def_445))
(define-fun .def_218 () Bool (and .def_111 .def_217))
(define-fun .def_219 () Bool (and .def_144 .def_218))
(define-fun .def_220 () Bool (and .def_115 .def_219))
(define-fun .def_173 () Bool (<= .def_10 .def_22))
(define-fun .def_221 () Bool (and .def_173 .def_220))
(define-fun .def_447 () Bool (and .def_221 .def_446))
(define-fun .def_430 () Bool (= !pc.next 80))
(define-fun .def_442 () Bool (and .def_430 .def_437))
(define-fun .def_135 () Int (* (- 1) |!{$(in_main#0)<y>}.next|))
(define-fun .def_201 () Int (+ .def_22 .def_135))
(define-fun .def_202 () Bool (= .def_201 (- 1)))
(define-fun .def_132 () Bool (= .def_20 |!{$(in_main#0)<x>}.next|))
(define-fun .def_133 () Bool (and .def_131 .def_132))
(define-fun .def_203 () Bool (and .def_133 .def_202))
(define-fun .def_204 () Bool (and .def_139 .def_203))
(define-fun .def_205 () Bool (and .def_141 .def_204))
(define-fun .def_206 () Bool (and .def_111 .def_205))
(define-fun .def_207 () Bool (and .def_144 .def_206))
(define-fun .def_208 () Bool (and .def_115 .def_207))
(define-fun .def_177 () Int (+ .def_14 .def_22))
(define-fun .def_178 () Int (select .def_28 .def_177))
(define-fun .def_176 () Int (select .def_28 .def_175))
(define-fun .def_179 () Bool (= .def_176 .def_178))
(define-fun .def_180 () Bool (not .def_179))
(define-fun .def_181 () Int (ite .def_180 1 0))
(define-fun .def_182 () Bool (= .def_181 0))
(define-fun .def_183 () Bool (not .def_182))
(define-fun .def_209 () Bool (and .def_183 .def_208))
(define-fun .def_174 () Bool (not .def_173))
(define-fun .def_210 () Bool (and .def_174 .def_209))
(define-fun .def_443 () Bool (and .def_210 .def_442))
(define-fun .def_439 () Bool (= !pc.next 100))
(define-fun .def_440 () Bool (and .def_437 .def_439))
(define-fun .def_187 () Bool (and .def_124 .def_182))
(define-fun .def_188 () Bool (and .def_93 .def_187))
(define-fun .def_189 () Bool (and .def_126 .def_188))
(define-fun .def_190 () Bool (and .def_97 .def_189))
(define-fun .def_191 () Bool (and .def_129 .def_190))
(define-fun .def_192 () Bool (and .def_101 .def_191))
(define-fun .def_193 () Bool (and .def_132 .def_192))
(define-fun .def_194 () Bool (and .def_155 .def_193))
(define-fun .def_195 () Bool (and .def_139 .def_194))
(define-fun .def_196 () Bool (and .def_141 .def_195))
(define-fun .def_197 () Bool (and .def_111 .def_196))
(define-fun .def_198 () Bool (and .def_144 .def_197))
(define-fun .def_199 () Bool (and .def_115 .def_198))
(define-fun .def_200 () Bool (and .def_174 .def_199))
(define-fun .def_441 () Bool (and .def_200 .def_440))
(define-fun .def_444 () Bool (or .def_441 .def_443))
(define-fun .def_448 () Bool (or .def_444 .def_447))
(define-fun .def_428 () Bool (= .def_75 71))
(define-fun .def_419 () Bool (= !pc.next 116))
(define-fun .def_433 () Bool (and .def_419 .def_428))
(define-fun .def_406 () Bool (= |!{$(in_main#0)<v>}.next| 0))
(define-fun .def_407 () Bool (and .def_128 .def_406))
(define-fun .def_408 () Bool (and .def_101 .def_407))
(define-fun .def_409 () Bool (and .def_132 .def_408))
(define-fun .def_410 () Bool (and .def_155 .def_409))
(define-fun .def_411 () Bool (and .def_139 .def_410))
(define-fun .def_412 () Bool (and .def_141 .def_411))
(define-fun .def_413 () Bool (and .def_111 .def_412))
(define-fun .def_414 () Bool (and .def_144 .def_413))
(define-fun .def_415 () Bool (and .def_115 .def_414))
(define-fun .def_121 () Bool (<= .def_10 .def_20))
(define-fun .def_426 () Bool (and .def_121 .def_415))
(define-fun .def_434 () Bool (and .def_426 .def_433))
(define-fun .def_431 () Bool (and .def_428 .def_430))
(define-fun .def_136 () Int (+ .def_20 .def_135))
(define-fun .def_137 () Bool (= .def_136 (- 1)))
(define-fun .def_138 () Bool (and .def_133 .def_137))
(define-fun .def_140 () Bool (and .def_138 .def_139))
(define-fun .def_142 () Bool (and .def_140 .def_141))
(define-fun .def_143 () Bool (and .def_111 .def_142))
(define-fun .def_145 () Bool (and .def_143 .def_144))
(define-fun .def_146 () Bool (and .def_115 .def_145))
(define-fun .def_122 () Bool (not .def_121))
(define-fun .def_147 () Bool (and .def_122 .def_146))
(define-fun .def_432 () Bool (and .def_147 .def_431))
(define-fun .def_435 () Bool (or .def_432 .def_434))
(define-fun .def_418 () Bool (= .def_75 116))
(define-fun .def_296 () Bool (= !pc.next 137))
(define-fun .def_422 () Bool (and .def_296 .def_418))
(define-fun .def_237 () Bool (<= .def_32 .def_18))
(define-fun .def_416 () Bool (and .def_237 .def_415))
(define-fun .def_423 () Bool (and .def_416 .def_422))
(define-fun .def_420 () Bool (and .def_418 .def_419))
(define-fun .def_398 () (Array Int Int) (store .def_24 .def_18 |!{$(in_main#0)<$(in___VERIFIER_nondet_int#4)<h#<__VERIFIER_nondet_int.return>>>}|))
(define-fun .def_399 () Bool (= |!{$(in_main#0)<values.1>}.next| .def_398))
(define-fun .def_277 () Int (* (- 1) |!{$(in_main#0)<v>}.next|))
(define-fun .def_278 () Int (+ .def_18 .def_277))
(define-fun .def_279 () Bool (= .def_278 (- 1)))
(define-fun .def_280 () Bool (and .def_128 .def_279))
(define-fun .def_281 () Bool (and .def_101 .def_280))
(define-fun .def_282 () Bool (and .def_132 .def_281))
(define-fun .def_283 () Bool (and .def_155 .def_282))
(define-fun .def_400 () Bool (and .def_283 .def_399))
(define-fun .def_401 () Bool (and .def_141 .def_400))
(define-fun .def_402 () Bool (and .def_111 .def_401))
(define-fun .def_403 () Bool (and .def_144 .def_402))
(define-fun .def_404 () Bool (and .def_115 .def_403))
(define-fun .def_238 () Bool (not .def_237))
(define-fun .def_405 () Bool (and .def_238 .def_404))
(define-fun .def_421 () Bool (and .def_405 .def_420))
(define-fun .def_424 () Bool (or .def_421 .def_423))
(define-fun .def_391 () Bool (= .def_75 154))
(define-fun .def_309 () Bool (= !pc.next 208))
(define-fun .def_394 () Bool (and .def_309 .def_391))
(define-fun .def_385 () Bool (= |!{%mem.0}.next| |%{%mem.0}#2|))
(define-fun .def_375 () Bool (= |!{$(in_main#0)<n>}.next| |%{$(in_main#0)<n>}#2|))
(define-fun .def_376 () Bool (and .def_93 .def_375))
(define-fun .def_377 () Bool (and .def_126 .def_376))
(define-fun .def_378 () Bool (and .def_97 .def_377))
(define-fun .def_379 () Bool (and .def_129 .def_378))
(define-fun .def_380 () Bool (and .def_101 .def_379))
(define-fun .def_381 () Bool (and .def_103 .def_380))
(define-fun .def_382 () Bool (and .def_155 .def_381))
(define-fun .def_383 () Bool (and .def_139 .def_382))
(define-fun .def_384 () Bool (and .def_141 .def_383))
(define-fun .def_386 () Bool (and .def_384 .def_385))
(define-fun .def_387 () Bool (and .def_144 .def_386))
(define-fun .def_388 () Bool (and .def_115 .def_387))
(define-fun .def_355 () Int (* (- 1) |%{$(in_main#0)<$temp.1>}#3|))
(define-fun .def_356 () Int (+ .def_10 .def_355))
(define-fun .def_357 () Bool (= .def_356 (- 1)))
(define-fun .def_239 () Int (select .def_24 .def_18))
(define-fun .def_332 () Int (+ .def_10 .def_14))
(define-fun .def_333 () (Array Int Int) (store .def_28 .def_332 .def_239))
(define-fun .def_347 () Bool (= .def_333 |%{%mem.0}#2|))
(define-fun .def_339 () Int (* (- 1) |%{$(in_main#0)<n>}#2|))
(define-fun .def_340 () Int (+ .def_10 .def_339))
(define-fun .def_341 () Bool (= .def_340 (- 1)))
(define-fun .def_327 () Bool (= |%{$(in_main#0)<$(in_elem_exists#5)<elem_exists.return>>}#2| 0))
(define-fun .def_331 () Bool (not .def_327))
(define-fun .def_343 () Bool (and .def_331 .def_341))
(define-fun .def_349 () Bool (and .def_343 .def_347))
(define-fun .def_359 () Bool (and .def_349 .def_357))
(define-fun .def_354 () Bool (= |%{$(in_main#0)<$(in_elem_exists#5)<elem_exists.return>>}#2| |%{$(in_main#0)<$temp.1>}#3|))
(define-fun .def_346 () Bool (= .def_28 |%{%mem.0}#2|))
(define-fun .def_338 () Bool (= .def_10 |%{$(in_main#0)<n>}#2|))
(define-fun .def_342 () Bool (and .def_327 .def_338))
(define-fun .def_348 () Bool (and .def_342 .def_346))
(define-fun .def_358 () Bool (and .def_348 .def_354))
(define-fun .def_360 () Bool (or .def_358 .def_359))
(define-fun .def_389 () Bool (and .def_360 .def_388))
(define-fun .def_316 () Bool (<= .def_8 .def_16))
(define-fun .def_329 () Bool (and .def_316 .def_327))
(define-fun .def_326 () Bool (= |%{$(in_main#0)<$(in_elem_exists#5)<elem_exists.return>>}#2| 1))
(define-fun .def_318 () Int (+ .def_16 .def_30))
(define-fun .def_319 () Int (select .def_28 .def_318))
(define-fun .def_320 () Bool (= .def_12 .def_319))
(define-fun .def_317 () Bool (not .def_316))
(define-fun .def_324 () Bool (and .def_317 .def_320))
(define-fun .def_328 () Bool (and .def_324 .def_326))
(define-fun .def_330 () Bool (or .def_328 .def_329))
(define-fun .def_390 () Bool (and .def_330 .def_389))
(define-fun .def_395 () Bool (and .def_390 .def_394))
(define-fun .def_269 () Bool (= !pc.next 154))
(define-fun .def_392 () Bool (and .def_269 .def_391))
(define-fun .def_362 () Int (* (- 1) |!{$(in_main#0)<$(in_elem_exists#5)<i>>}.next|))
(define-fun .def_363 () Int (+ .def_16 .def_362))
(define-fun .def_364 () Bool (= .def_363 (- 1)))
(define-fun .def_365 () Bool (and .def_130 .def_364))
(define-fun .def_366 () Bool (and .def_132 .def_365))
(define-fun .def_367 () Bool (and .def_155 .def_366))
(define-fun .def_368 () Bool (and .def_139 .def_367))
(define-fun .def_369 () Bool (and .def_141 .def_368))
(define-fun .def_370 () Bool (and .def_111 .def_369))
(define-fun .def_371 () Bool (and .def_144 .def_370))
(define-fun .def_372 () Bool (and .def_115 .def_371))
(define-fun .def_321 () Bool (not .def_320))
(define-fun .def_373 () Bool (and .def_321 .def_372))
(define-fun .def_374 () Bool (and .def_317 .def_373))
(define-fun .def_393 () Bool (and .def_374 .def_392))
(define-fun .def_396 () Bool (or .def_393 .def_395))
(define-fun .def_301 () Bool (= .def_75 217))
(define-fun .def_310 () Bool (and .def_301 .def_309))
(define-fun .def_311 () Bool (and .def_221 .def_310))
(define-fun .def_293 () Bool (= !pc.next 217))
(define-fun .def_306 () Bool (and .def_293 .def_301))
(define-fun .def_307 () Bool (and .def_210 .def_306))
(define-fun .def_303 () Bool (= !pc.next 237))
(define-fun .def_304 () Bool (and .def_301 .def_303))
(define-fun .def_305 () Bool (and .def_200 .def_304))
(define-fun .def_308 () Bool (or .def_305 .def_307))
(define-fun .def_312 () Bool (or .def_308 .def_311))
(define-fun .def_291 () Bool (= .def_75 208))
(define-fun .def_297 () Bool (and .def_291 .def_296))
(define-fun .def_284 () Bool (and .def_139 .def_283))
(define-fun .def_285 () Bool (and .def_141 .def_284))
(define-fun .def_286 () Bool (and .def_111 .def_285))
(define-fun .def_287 () Bool (and .def_144 .def_286))
(define-fun .def_288 () Bool (and .def_115 .def_287))
(define-fun .def_289 () Bool (and .def_121 .def_288))
(define-fun .def_298 () Bool (and .def_289 .def_297))
(define-fun .def_294 () Bool (and .def_291 .def_293))
(define-fun .def_295 () Bool (and .def_147 .def_294))
(define-fun .def_299 () Bool (or .def_295 .def_298))
(define-fun .def_267 () Bool (= .def_75 137))
(define-fun .def_230 () Bool (= !pc.next 257))
(define-fun .def_272 () Bool (and .def_230 .def_267))
(define-fun .def_265 () Bool (and .def_237 .def_264))
(define-fun .def_273 () Bool (and .def_265 .def_272))
(define-fun .def_270 () Bool (and .def_267 .def_269))
(define-fun .def_255 () Bool (= .def_14 |!{$(in_main#0)<$(in_elem_exists#5)<set>>}.next|))
(define-fun .def_247 () Bool (= |!{$(in_main#0)<$(in_elem_exists#5)<i>>}.next| 0))
(define-fun .def_244 () Bool (= |!{$(in_main#0)<$(in_elem_exists#5)<value>>}.next| .def_239))
(define-fun .def_241 () Bool (= |!{$(in_main#0)<$(in_elem_exists#5)<size>>}.next| .def_10))
(define-fun .def_242 () Bool (and .def_124 .def_241))
(define-fun .def_243 () Bool (and .def_126 .def_242))
(define-fun .def_245 () Bool (and .def_243 .def_244))
(define-fun .def_246 () Bool (and .def_129 .def_245))
(define-fun .def_248 () Bool (and .def_246 .def_247))
(define-fun .def_249 () Bool (and .def_132 .def_248))
(define-fun .def_250 () Bool (and .def_155 .def_249))
(define-fun .def_251 () Bool (and .def_139 .def_250))
(define-fun .def_252 () Bool (and .def_141 .def_251))
(define-fun .def_253 () Bool (and .def_111 .def_252))
(define-fun .def_254 () Bool (and .def_144 .def_253))
(define-fun .def_256 () Bool (and .def_254 .def_255))
(define-fun .def_257 () Bool (and .def_238 .def_256))
(define-fun .def_271 () Bool (and .def_257 .def_270))
(define-fun .def_274 () Bool (or .def_271 .def_273))
(define-fun .def_222 () Bool (= .def_75 266))
(define-fun .def_231 () Bool (and .def_222 .def_230))
(define-fun .def_232 () Bool (and .def_221 .def_231))
(define-fun .def_165 () Bool (= !pc.next 266))
(define-fun .def_227 () Bool (and .def_165 .def_222))
(define-fun .def_228 () Bool (and .def_210 .def_227))
(define-fun .def_224 () Bool (= !pc.next 286))
(define-fun .def_225 () Bool (and .def_222 .def_224))
(define-fun .def_226 () Bool (and .def_200 .def_225))
(define-fun .def_229 () Bool (or .def_226 .def_228))
(define-fun .def_233 () Bool (or .def_229 .def_232))
(define-fun .def_168 () Bool (= !pc.next 0))
(define-fun .def_163 () Bool (= .def_75 257))
(define-fun .def_169 () Bool (and .def_163 .def_168))
(define-fun .def_148 () Bool (and .def_121 .def_124))
(define-fun .def_149 () Bool (and .def_93 .def_148))
(define-fun .def_150 () Bool (and .def_126 .def_149))
(define-fun .def_151 () Bool (and .def_97 .def_150))
(define-fun .def_152 () Bool (and .def_129 .def_151))
(define-fun .def_153 () Bool (and .def_101 .def_152))
(define-fun .def_154 () Bool (and .def_132 .def_153))
(define-fun .def_156 () Bool (and .def_154 .def_155))
(define-fun .def_157 () Bool (and .def_139 .def_156))
(define-fun .def_158 () Bool (and .def_141 .def_157))
(define-fun .def_159 () Bool (and .def_111 .def_158))
(define-fun .def_160 () Bool (and .def_144 .def_159))
(define-fun .def_161 () Bool (and .def_115 .def_160))
(define-fun .def_170 () Bool (and .def_161 .def_169))
(define-fun .def_166 () Bool (and .def_163 .def_165))
(define-fun .def_167 () Bool (and .def_147 .def_166))
(define-fun .def_171 () Bool (or .def_167 .def_170))
(define-fun .def_119 () Bool (and .def_78 .def_118))
(define-fun .def_113 () Bool (= |!{$(in_main#0)<SIZE>}.next| |!{$(in_main#0)<$(in___VERIFIER_nondet_int#1)<h#<__VERIFIER_nondet_int.return>>>}|))
(define-fun .def_109 () Bool (= |!{%memaddr}.next| 2))
(define-fun .def_107 () Bool (= |!{$(in_main#0)<values.1>}.next| |%{$(in_main#0)<values.1>}#1|))
(define-fun .def_105 () Bool (= |!{$(in_main#0)<y>}.next| |%{$(in_main#0)<y>}#1|))
(define-fun .def_99 () Bool (= |!{$(in_main#0)<v>}.next| |%{$(in_main#0)<v>}#1|))
(define-fun .def_95 () Bool (= |!{$(in_main#0)<&set>}.next| 1))
(define-fun .def_92 () Bool (= |!{$(in_main#0)<n>}.next| 0))
(define-fun .def_94 () Bool (and .def_92 .def_93))
(define-fun .def_96 () Bool (and .def_94 .def_95))
(define-fun .def_98 () Bool (and .def_96 .def_97))
(define-fun .def_100 () Bool (and .def_98 .def_99))
(define-fun .def_102 () Bool (and .def_100 .def_101))
(define-fun .def_104 () Bool (and .def_102 .def_103))
(define-fun .def_106 () Bool (and .def_104 .def_105))
(define-fun .def_108 () Bool (and .def_106 .def_107))
(define-fun .def_110 () Bool (and .def_108 .def_109))
(define-fun .def_112 () Bool (and .def_110 .def_111))
(define-fun .def_114 () Bool (and .def_112 .def_113))
(define-fun .def_116 () Bool (and .def_114 .def_115))
(define-fun .def_120 () Bool (and .def_116 .def_119))
(define-fun .def_172 () Bool (or .def_120 .def_171))
(define-fun .def_234 () Bool (or .def_172 .def_233))
(define-fun .def_275 () Bool (or .def_234 .def_274))
(define-fun .def_300 () Bool (or .def_275 .def_299))
(define-fun .def_313 () Bool (or .def_300 .def_312))
(define-fun .def_397 () Bool (or .def_313 .def_396))
(define-fun .def_425 () Bool (or .def_397 .def_424))
(define-fun .def_436 () Bool (or .def_425 .def_435))
(define-fun .def_449 () Bool (or .def_436 .def_448))
(define-fun .def_467 () Bool (! (or .def_449 .def_466) :trans true))
(define-fun .def_314 () Bool (= .def_75 237))
(define-fun .def_235 () Bool (= .def_75 286))
(define-fun .def_468 () Bool (or .def_235 .def_314))
(define-fun .def_450 () Bool (= .def_75 100))
(define-fun .def_469 () Bool (or .def_450 .def_468))
(define-fun .def_470 () Bool (! (not .def_469) :invar-property 0 :invar-property-name ||))
(assert true)
